c "137337.clq"
p edge 100 1344
e 1 17
e 1 18
e 1 19
e 1 20
e 1 21
e 1 22
e 1 23
e 1 25
e 1 26
e 1 28
e 1 29
e 1 30
e 1 32
e 1 36
e 1 39
e 1 40
e 1 42
e 1 43
e 1 44
e 1 45
e 1 50
e 1 56
e 1 60
e 1 66
e 1 69
e 1 71
e 1 72
e 1 73
e 1 74
e 1 89
e 1 96
e 1 98
e 1 99
e 2 17
e 2 18
e 2 19
e 2 21
e 2 22
e 2 27
e 2 30
e 2 31
e 2 33
e 2 41
e 2 42
e 2 82
e 2 87
e 3 17
e 3 18
e 3 19
e 3 20
e 3 23
e 3 24
e 3 27
e 3 29
e 3 30
e 3 36
e 3 49
e 3 55
e 3 56
e 3 61
e 3 72
e 3 81
e 3 84
e 3 85
e 4 17
e 4 18
e 4 19
e 4 20
e 4 21
e 4 22
e 4 25
e 4 28
e 4 29
e 4 31
e 4 33
e 4 35
e 4 36
e 4 37
e 4 38
e 4 40
e 4 42
e 4 46
e 4 51
e 4 53
e 4 55
e 4 58
e 4 61
e 4 66
e 4 71
e 4 84
e 4 86
e 4 88
e 4 93
e 4 99
e 5 17
e 5 18
e 5 19
e 5 20
e 5 21
e 5 22
e 5 24
e 5 25
e 5 26
e 5 28
e 5 29
e 5 31
e 5 33
e 5 40
e 5 43
e 5 45
e 5 55
e 5 57
e 5 58
e 5 59
e 5 61
e 5 66
e 5 67
e 5 70
e 5 73
e 5 77
e 5 79
e 5 83
e 5 84
e 5 85
e 5 91
e 6 17
e 6 18
e 6 19
e 6 20
e 6 24
e 6 30
e 6 34
e 6 38
e 6 46
e 6 48
e 6 50
e 6 51
e 6 53
e 6 56
e 6 60
e 6 62
e 6 63
e 6 69
e 6 73
e 6 78
e 6 79
e 6 81
e 6 83
e 6 93
e 6 97
e 7 17
e 7 18
e 7 19
e 7 20
e 7 21
e 7 23
e 7 24
e 7 25
e 7 28
e 7 30
e 7 32
e 7 33
e 7 34
e 7 36
e 7 37
e 7 38
e 7 39
e 7 44
e 7 45
e 7 49
e 7 50
e 7 69
e 7 75
e 7 76
e 7 78
e 7 80
e 7 91
e 7 95
e 7 98
e 8 17
e 8 18
e 8 19
e 8 20
e 8 21
e 8 22
e 8 23
e 8 24
e 8 25
e 8 33
e 8 43
e 8 49
e 8 52
e 8 56
e 8 59
e 8 77
e 8 82
e 8 83
e 8 86
e 8 99
e 9 17
e 9 18
e 9 19
e 9 21
e 9 22
e 9 23
e 9 26
e 9 37
e 9 59
e 9 74
e 9 88
e 10 17
e 10 18
e 10 19
e 10 20
e 10 22
e 10 23
e 10 24
e 10 26
e 10 27
e 10 28
e 10 30
e 10 31
e 10 33
e 10 35
e 10 36
e 10 37
e 10 42
e 10 43
e 10 46
e 10 56
e 10 58
e 10 60
e 10 63
e 10 64
e 10 66
e 10 70
e 10 80
e 10 84
e 10 86
e 10 88
e 10 90
e 10 92
e 10 96
e 10 97
e 10 100
e 11 17
e 11 18
e 11 19
e 11 20
e 11 21
e 11 22
e 11 23
e 11 25
e 11 26
e 11 27
e 11 28
e 11 29
e 11 31
e 11 38
e 11 41
e 11 45
e 11 46
e 11 49
e 11 52
e 11 53
e 11 55
e 11 60
e 11 63
e 11 64
e 11 65
e 11 66
e 11 79
e 11 81
e 11 83
e 11 85
e 11 86
e 11 88
e 11 89
e 11 94
e 11 95
e 11 96
e 12 17
e 12 19
e 12 20
e 12 22
e 12 23
e 12 24
e 12 25
e 12 26
e 12 27
e 12 31
e 12 32
e 12 33
e 12 34
e 12 37
e 12 38
e 12 43
e 12 44
e 12 49
e 12 56
e 12 57
e 12 59
e 12 67
e 12 72
e 12 78
e 12 85
e 12 92
e 13 17
e 13 18
e 13 19
e 13 20
e 13 21
e 13 22
e 13 23
e 13 24
e 13 25
e 13 34
e 13 37
e 13 41
e 13 73
e 14 17
e 14 18
e 14 19
e 14 20
e 14 21
e 14 26
e 14 28
e 14 29
e 14 31
e 14 33
e 14 35
e 14 37
e 14 40
e 14 41
e 14 42
e 14 43
e 14 47
e 14 58
e 14 60
e 14 62
e 14 64
e 14 65
e 14 66
e 14 68
e 14 69
e 14 73
e 14 97
e 14 100
e 15 17
e 15 18
e 15 21
e 15 22
e 15 27
e 15 28
e 15 30
e 15 32
e 15 35
e 15 38
e 15 49
e 15 54
e 15 70
e 16 17
e 16 18
e 16 20
e 16 21
e 16 23
e 16 24
e 16 25
e 16 26
e 16 27
e 16 30
e 16 34
e 16 37
e 16 39
e 16 43
e 16 45
e 16 47
e 16 51
e 16 58
e 16 59
e 16 65
e 16 71
e 16 74
e 16 77
e 16 80
e 16 91
e 17 18
e 17 19
e 17 20
e 17 21
e 17 22
e 17 23
e 17 24
e 17 25
e 17 26
e 17 27
e 17 28
e 17 29
e 17 30
e 17 34
e 17 35
e 17 36
e 17 37
e 17 38
e 17 39
e 17 40
e 17 42
e 17 44
e 17 45
e 17 46
e 17 49
e 17 51
e 17 54
e 17 55
e 17 58
e 17 59
e 17 61
e 17 65
e 17 69
e 17 70
e 17 71
e 17 73
e 17 78
e 17 84
e 17 86
e 17 90
e 17 94
e 17 95
e 17 96
e 17 97
e 18 19
e 18 20
e 18 21
e 18 22
e 18 23
e 18 24
e 18 25
e 18 27
e 18 28
e 18 29
e 18 31
e 18 32
e 18 33
e 18 34
e 18 38
e 18 39
e 18 40
e 18 41
e 18 42
e 18 44
e 18 45
e 18 47
e 18 48
e 18 50
e 18 51
e 18 56
e 18 60
e 18 70
e 18 72
e 18 74
e 18 77
e 18 79
e 18 80
e 18 86
e 18 91
e 18 92
e 18 94
e 18 98
e 18 99
e 18 100
e 19 20
e 19 21
e 19 22
e 19 23
e 19 24
e 19 25
e 19 26
e 19 27
e 19 29
e 19 30
e 19 31
e 19 32
e 19 33
e 19 34
e 19 36
e 19 37
e 19 39
e 19 40
e 19 43
e 19 46
e 19 47
e 19 48
e 19 49
e 19 52
e 19 53
e 19 55
e 19 58
e 19 59
e 19 61
e 19 62
e 19 63
e 19 64
e 19 65
e 19 69
e 19 70
e 19 72
e 19 76
e 19 78
e 19 79
e 19 82
e 19 83
e 19 89
e 19 94
e 19 95
e 19 99
e 20 21
e 20 22
e 20 23
e 20 24
e 20 25
e 20 26
e 20 27
e 20 28
e 20 29
e 20 30
e 20 32
e 20 34
e 20 35
e 20 36
e 20 38
e 20 39
e 20 40
e 20 41
e 20 42
e 20 45
e 20 48
e 20 50
e 20 52
e 20 54
e 20 57
e 20 62
e 20 64
e 20 67
e 20 69
e 20 71
e 20 74
e 20 79
e 20 85
e 20 88
e 20 91
e 20 100
e 21 22
e 21 23
e 21 24
e 21 25
e 21 26
e 21 27
e 21 28
e 21 32
e 21 33
e 21 34
e 21 35
e 21 36
e 21 40
e 21 41
e 21 43
e 21 44
e 21 45
e 21 49
e 21 51
e 21 52
e 21 55
e 21 62
e 21 65
e 21 69
e 21 70
e 21 75
e 21 80
e 21 82
e 21 87
e 21 91
e 21 92
e 21 93
e 21 99
e 22 23
e 22 24
e 22 25
e 22 26
e 22 27
e 22 29
e 22 30
e 22 31
e 22 32
e 22 34
e 22 35
e 22 38
e 22 39
e 22 41
e 22 44
e 22 45
e 22 46
e 22 48
e 22 50
e 22 54
e 22 55
e 22 56
e 22 58
e 22 60
e 22 64
e 22 65
e 22 66
e 22 68
e 22 71
e 22 76
e 22 79
e 22 89
e 22 90
e 22 97
e 22 98
e 23 24
e 23 25
e 23 26
e 23 27
e 23 29
e 23 31
e 23 32
e 23 35
e 23 39
e 23 41
e 23 42
e 23 44
e 23 45
e 23 46
e 23 47
e 23 48
e 23 50
e 23 51
e 23 52
e 23 56
e 23 59
e 23 61
e 23 64
e 23 66
e 23 67
e 23 72
e 23 84
e 23 85
e 23 95
e 23 97
e 23 99
e 23 100
e 24 26
e 24 27
e 24 28
e 24 29
e 24 30
e 24 33
e 24 36
e 24 37
e 24 38
e 24 39
e 24 44
e 24 50
e 24 54
e 24 62
e 24 69
e 24 72
e 24 78
e 24 79
e 24 83
e 24 91
e 24 100
e 25 26
e 25 28
e 25 29
e 25 30
e 25 31
e 25 32
e 25 33
e 25 34
e 25 35
e 25 36
e 25 38
e 25 39
e 25 40
e 25 42
e 25 44
e 25 46
e 25 47
e 25 49
e 25 51
e 25 53
e 25 55
e 25 57
e 25 60
e 25 61
e 25 62
e 25 63
e 25 65
e 25 68
e 25 69
e 25 70
e 25 71
e 25 78
e 25 79
e 25 81
e 25 86
e 25 87
e 25 88
e 25 90
e 25 91
e 25 93
e 25 97
e 25 98
e 26 27
e 26 28
e 26 29
e 26 30
e 26 31
e 26 32
e 26 33
e 26 36
e 26 37
e 26 43
e 26 47
e 26 54
e 26 57
e 26 58
e 26 59
e 26 65
e 26 67
e 26 68
e 26 70
e 26 71
e 26 72
e 26 73
e 26 75
e 26 79
e 26 81
e 26 82
e 26 87
e 26 89
e 26 94
e 27 28
e 27 29
e 27 31
e 27 36
e 27 37
e 27 38
e 27 39
e 27 40
e 27 43
e 27 44
e 27 46
e 27 47
e 27 51
e 27 53
e 27 57
e 27 60
e 27 61
e 27 65
e 27 68
e 27 69
e 27 84
e 27 88
e 27 91
e 27 95
e 27 100
e 28 30
e 28 31
e 28 32
e 28 34
e 28 35
e 28 36
e 28 40
e 28 41
e 28 44
e 28 47
e 28 48
e 28 50
e 28 51
e 28 52
e 28 54
e 28 58
e 28 63
e 28 64
e 28 68
e 28 70
e 28 72
e 28 73
e 28 74
e 28 75
e 28 81
e 28 85
e 28 86
e 28 88
e 28 95
e 28 97
e 28 98
e 28 100
e 29 32
e 29 34
e 29 35
e 29 36
e 29 37
e 29 41
e 29 42
e 29 45
e 29 47
e 29 48
e 29 53
e 29 54
e 29 55
e 29 56
e 29 61
e 29 63
e 29 74
e 29 76
e 29 83
e 29 91
e 29 92
e 29 93
e 29 95
e 30 31
e 30 32
e 30 33
e 30 34
e 30 35
e 30 40
e 30 50
e 30 52
e 30 53
e 30 54
e 30 55
e 30 57
e 30 59
e 30 62
e 30 63
e 30 66
e 30 75
e 30 76
e 30 78
e 30 79
e 30 81
e 30 84
e 30 85
e 30 86
e 31 32
e 31 33
e 31 34
e 31 35
e 31 37
e 31 38
e 31 42
e 31 44
e 31 45
e 31 46
e 31 48
e 31 49
e 31 51
e 31 52
e 31 55
e 31 59
e 31 63
e 31 70
e 31 72
e 31 73
e 31 74
e 31 75
e 31 78
e 31 82
e 31 84
e 31 89
e 31 99
e 32 38
e 32 39
e 32 44
e 32 47
e 32 52
e 32 53
e 32 57
e 32 60
e 32 67
e 32 69
e 32 73
e 32 74
e 32 79
e 32 83
e 32 91
e 32 92
e 32 94
e 33 35
e 33 41
e 33 43
e 33 45
e 33 49
e 33 53
e 33 58
e 33 68
e 33 86
e 33 93
e 33 95
e 33 96
e 33 99
e 34 35
e 34 36
e 34 39
e 34 41
e 34 42
e 34 44
e 34 46
e 34 49
e 34 51
e 34 52
e 34 54
e 34 56
e 34 57
e 34 64
e 34 65
e 34 70
e 34 74
e 34 77
e 34 80
e 34 86
e 34 89
e 34 94
e 34 99
e 34 100
e 35 38
e 35 39
e 35 41
e 35 43
e 35 53
e 35 57
e 35 60
e 35 63
e 35 67
e 35 68
e 35 73
e 35 75
e 35 79
e 35 82
e 35 85
e 35 87
e 35 88
e 35 90
e 35 92
e 35 93
e 36 37
e 36 39
e 36 40
e 36 44
e 36 48
e 36 52
e 36 53
e 36 54
e 36 56
e 36 59
e 36 60
e 36 62
e 36 67
e 36 68
e 36 71
e 36 72
e 36 77
e 36 80
e 36 83
e 36 86
e 36 93
e 36 96
e 37 40
e 37 41
e 37 43
e 37 47
e 37 48
e 37 49
e 37 53
e 37 57
e 37 58
e 37 62
e 37 64
e 37 66
e 37 67
e 37 74
e 37 75
e 37 76
e 37 77
e 37 80
e 37 82
e 37 85
e 37 87
e 37 89
e 37 90
e 37 93
e 37 97
e 37 100
e 38 40
e 38 42
e 38 46
e 38 54
e 38 60
e 38 65
e 38 67
e 38 68
e 38 75
e 38 82
e 38 85
e 38 87
e 38 94
e 38 98
e 39 41
e 39 42
e 39 47
e 39 51
e 39 54
e 39 55
e 39 56
e 39 57
e 39 61
e 39 65
e 39 66
e 39 68
e 39 69
e 39 70
e 39 71
e 39 80
e 39 85
e 39 88
e 39 92
e 39 95
e 40 46
e 40 48
e 40 49
e 40 50
e 40 52
e 40 53
e 40 54
e 40 58
e 40 61
e 40 62
e 40 63
e 40 67
e 40 69
e 40 70
e 40 71
e 40 72
e 40 75
e 40 76
e 40 77
e 40 81
e 40 84
e 40 87
e 40 92
e 40 94
e 40 95
e 41 42
e 41 43
e 41 46
e 41 47
e 41 48
e 41 56
e 41 59
e 41 61
e 41 62
e 41 72
e 41 74
e 41 78
e 41 81
e 41 90
e 41 97
e 42 43
e 42 49
e 42 55
e 42 59
e 42 61
e 42 66
e 42 78
e 42 83
e 42 89
e 42 90
e 42 94
e 43 45
e 43 50
e 43 53
e 43 59
e 43 63
e 43 64
e 43 66
e 43 77
e 43 80
e 43 82
e 43 86
e 43 90
e 44 45
e 44 47
e 44 48
e 44 50
e 44 51
e 44 52
e 44 55
e 44 57
e 44 62
e 44 63
e 44 64
e 44 66
e 44 74
e 44 77
e 44 79
e 44 82
e 44 87
e 44 90
e 44 98
e 45 46
e 45 48
e 45 64
e 45 68
e 45 90
e 45 92
e 45 93
e 45 96
e 45 98
e 46 47
e 46 50
e 46 51
e 46 57
e 46 71
e 46 73
e 46 76
e 46 87
e 46 89
e 47 48
e 47 50
e 47 51
e 47 53
e 47 63
e 47 64
e 47 67
e 47 74
e 47 75
e 47 83
e 47 84
e 47 93
e 48 50
e 48 52
e 48 54
e 48 55
e 48 62
e 48 63
e 48 64
e 48 69
e 48 77
e 48 81
e 48 85
e 48 89
e 48 93
e 48 94
e 48 98
e 48 99
e 49 52
e 49 56
e 49 57
e 49 58
e 49 68
e 49 81
e 49 90
e 49 91
e 49 94
e 49 100
e 50 59
e 50 77
e 50 78
e 50 82
e 50 84
e 50 87
e 51 54
e 51 57
e 51 60
e 51 62
e 51 67
e 51 68
e 51 72
e 51 80
e 51 83
e 51 85
e 51 95
e 51 96
e 52 60
e 52 61
e 52 73
e 52 76
e 52 77
e 52 85
e 52 90
e 53 65
e 53 75
e 53 76
e 53 78
e 53 98
e 54 65
e 54 68
e 54 75
e 54 76
e 54 78
e 54 80
e 54 83
e 54 85
e 54 99
e 54 100
e 55 56
e 55 64
e 55 73
e 55 81
e 55 92
e 56 58
e 56 71
e 56 75
e 56 76
e 56 77
e 56 88
e 56 97
e 56 100
e 57 58
e 57 60
e 57 61
e 57 62
e 57 67
e 57 70
e 57 76
e 57 81
e 57 87
e 57 92
e 57 99
e 58 75
e 58 76
e 58 77
e 58 78
e 58 79
e 58 82
e 58 91
e 58 95
e 58 97
e 58 99
e 59 61
e 59 71
e 59 79
e 60 66
e 60 68
e 60 89
e 61 69
e 61 71
e 61 74
e 62 63
e 62 66
e 62 71
e 62 75
e 62 84
e 62 89
e 62 91
e 63 65
e 63 72
e 63 87
e 63 96
e 64 87
e 64 88
e 65 67
e 65 91
e 66 67
e 66 72
e 66 78
e 66 80
e 66 83
e 66 84
e 66 88
e 66 93
e 66 94
e 67 80
e 67 84
e 67 86
e 67 88
e 67 93
e 67 94
e 67 98
e 67 99
e 67 100
e 68 80
e 69 70
e 69 76
e 69 80
e 69 82
e 70 73
e 71 73
e 71 92
e 71 94
e 72 84
e 72 87
e 72 89
e 72 93
e 72 95
e 73 74
e 73 76
e 73 87
e 73 92
e 73 96
e 74 83
e 74 91
e 75 94
e 76 77
e 76 82
e 77 86
e 78 81
e 79 81
e 79 82
e 79 83
e 79 88
e 79 93
e 79 97
e 79 100
e 80 81
e 80 90
e 80 95
e 81 95
e 81 97
e 82 86
e 82 90
e 83 98
e 84 90
e 84 96
e 84 98
e 84 99
e 85 89
e 85 96
e 86 89
e 86 92
e 87 88
e 87 96
e 88 92
e 88 98
e 90 96
e 91 96
e 91 97
e 92 97
e 94 96
e 95 98
e 96 100
